\ Model EV Charging Network - Realistic
\ LP format - for model browsing. Use MPS format to capture full model detail.
Maximize
  3 charger_assignments[site1,Level1] + 12 charger_assignments[site1,Level2]
   + 30 charger_assignments[site1,Fast50]
   + 55 charger_assignments[site1,Fast150]
   + 80 charger_assignments[site1,Ultra350]
   + 3 charger_assignments[site2,Level1]
   + 12 charger_assignments[site2,Level2]
   + 30 charger_assignments[site2,Fast50]
   + 55 charger_assignments[site2,Fast150]
   + 80 charger_assignments[site2,Ultra350]
   + 3 charger_assignments[site3,Level1]
   + 12 charger_assignments[site3,Level2]
   + 30 charger_assignments[site3,Fast50]
   + 55 charger_assignments[site3,Fast150]
   + 80 charger_assignments[site3,Ultra350]
   + 3 charger_assignments[site4,Level1]
   + 12 charger_assignments[site4,Level2]
   + 30 charger_assignments[site4,Fast50]
   + 55 charger_assignments[site4,Fast150]
   + 80 charger_assignments[site4,Ultra350]
   + 3 charger_assignments[site5,Level1]
   + 12 charger_assignments[site5,Level2]
   + 30 charger_assignments[site5,Fast50]
   + 55 charger_assignments[site5,Fast150]
   + 80 charger_assignments[site5,Ultra350]
Subject To
 global_resource_usage[budget]: 1200 charger_assignments[site1,Level1]
   + 6500 charger_assignments[site1,Level2]
   + 45000 charger_assignments[site1,Fast50]
   + 110000 charger_assignments[site1,Fast150]
   + 190000 charger_assignments[site1,Ultra350]
   + 1200 charger_assignments[site2,Level1]
   + 6500 charger_assignments[site2,Level2]
   + 45000 charger_assignments[site2,Fast50]
   + 110000 charger_assignments[site2,Fast150]
   + 190000 charger_assignments[site2,Ultra350]
   + 1200 charger_assignments[site3,Level1]
   + 6500 charger_assignments[site3,Level2]
   + 45000 charger_assignments[site3,Fast50]
   + 110000 charger_assignments[site3,Fast150]
   + 190000 charger_assignments[site3,Ultra350]
   + 1200 charger_assignments[site4,Level1]
   + 6500 charger_assignments[site4,Level2]
   + 45000 charger_assignments[site4,Fast50]
   + 110000 charger_assignments[site4,Fast150]
   + 190000 charger_assignments[site4,Ultra350]
   + 1200 charger_assignments[site5,Level1]
   + 6500 charger_assignments[site5,Level2]
   + 45000 charger_assignments[site5,Fast50]
   + 110000 charger_assignments[site5,Fast150]
   + 190000 charger_assignments[site5,Ultra350] <= 2e+06
 global_resource_usage[equipment]: charger_assignments[site1,Level1]
   + charger_assignments[site1,Level2] + charger_assignments[site1,Fast50]
   + charger_assignments[site1,Fast150]
   + charger_assignments[site1,Ultra350]
   + charger_assignments[site2,Level1] + charger_assignments[site2,Level2]
   + charger_assignments[site2,Fast50] + charger_assignments[site2,Fast150]
   + charger_assignments[site2,Ultra350]
   + charger_assignments[site3,Level1] + charger_assignments[site3,Level2]
   + charger_assignments[site3,Fast50] + charger_assignments[site3,Fast150]
   + charger_assignments[site3,Ultra350]
   + charger_assignments[site4,Level1] + charger_assignments[site4,Level2]
   + charger_assignments[site4,Fast50] + charger_assignments[site4,Fast150]
   + charger_assignments[site4,Ultra350]
   + charger_assignments[site5,Level1] + charger_assignments[site5,Level2]
   + charger_assignments[site5,Fast50] + charger_assignments[site5,Fast150]
   + charger_assignments[site5,Ultra350] <= 80
 site_resource_usage[site1,power]: 1.4 charger_assignments[site1,Level1]
   + 11 charger_assignments[site1,Level2]
   + 50 charger_assignments[site1,Fast50]
   + 150 charger_assignments[site1,Fast150]
   + 350 charger_assignments[site1,Ultra350] <= 350
 site_resource_usage[site1,bays]: charger_assignments[site1,Level1]
   + charger_assignments[site1,Level2]
   + 2 charger_assignments[site1,Fast50]
   + 3 charger_assignments[site1,Fast150]
   + 4 charger_assignments[site1,Ultra350] <= 15
 site_resource_usage[site2,power]: 1.4 charger_assignments[site2,Level1]
   + 11 charger_assignments[site2,Level2]
   + 50 charger_assignments[site2,Fast50]
   + 150 charger_assignments[site2,Fast150]
   + 350 charger_assignments[site2,Ultra350] <= 450
 site_resource_usage[site2,bays]: charger_assignments[site2,Level1]
   + charger_assignments[site2,Level2]
   + 2 charger_assignments[site2,Fast50]
   + 3 charger_assignments[site2,Fast150]
   + 4 charger_assignments[site2,Ultra350] <= 20
 site_resource_usage[site3,power]: 1.4 charger_assignments[site3,Level1]
   + 11 charger_assignments[site3,Level2]
   + 50 charger_assignments[site3,Fast50]
   + 150 charger_assignments[site3,Fast150]
   + 350 charger_assignments[site3,Ultra350] <= 650
 site_resource_usage[site3,bays]: charger_assignments[site3,Level1]
   + charger_assignments[site3,Level2]
   + 2 charger_assignments[site3,Fast50]
   + 3 charger_assignments[site3,Fast150]
   + 4 charger_assignments[site3,Ultra350] <= 22
 site_resource_usage[site4,power]: 1.4 charger_assignments[site4,Level1]
   + 11 charger_assignments[site4,Level2]
   + 50 charger_assignments[site4,Fast50]
   + 150 charger_assignments[site4,Fast150]
   + 350 charger_assignments[site4,Ultra350] <= 525
 site_resource_usage[site4,bays]: charger_assignments[site4,Level1]
   + charger_assignments[site4,Level2]
   + 2 charger_assignments[site4,Fast50]
   + 3 charger_assignments[site4,Fast150]
   + 4 charger_assignments[site4,Ultra350] <= 24
 site_resource_usage[site5,power]: 1.4 charger_assignments[site5,Level1]
   + 11 charger_assignments[site5,Level2]
   + 50 charger_assignments[site5,Fast50]
   + 150 charger_assignments[site5,Fast150]
   + 350 charger_assignments[site5,Ultra350] <= 530
 site_resource_usage[site5,bays]: charger_assignments[site5,Level1]
   + charger_assignments[site5,Level2]
   + 2 charger_assignments[site5,Fast50]
   + 3 charger_assignments[site5,Fast150]
   + 4 charger_assignments[site5,Ultra350] <= 25
 demand_satisfaction[site1]: 3 charger_assignments[site1,Level1]
   + 12 charger_assignments[site1,Level2]
   + 30 charger_assignments[site1,Fast50]
   + 55 charger_assignments[site1,Fast150]
   + 80 charger_assignments[site1,Ultra350] >= 100
 demand_satisfaction[site2]: 3 charger_assignments[site2,Level1]
   + 12 charger_assignments[site2,Level2]
   + 30 charger_assignments[site2,Fast50]
   + 55 charger_assignments[site2,Fast150]
   + 80 charger_assignments[site2,Ultra350] >= 250
 demand_satisfaction[site3]: 3 charger_assignments[site3,Level1]
   + 12 charger_assignments[site3,Level2]
   + 30 charger_assignments[site3,Fast50]
   + 55 charger_assignments[site3,Fast150]
   + 80 charger_assignments[site3,Ultra350] >= 300
 demand_satisfaction[site4]: 3 charger_assignments[site4,Level1]
   + 12 charger_assignments[site4,Level2]
   + 30 charger_assignments[site4,Fast50]
   + 55 charger_assignments[site4,Fast150]
   + 80 charger_assignments[site4,Ultra350] >= 150
 demand_satisfaction[site5]: 3 charger_assignments[site5,Level1]
   + 12 charger_assignments[site5,Level2]
   + 30 charger_assignments[site5,Fast50]
   + 55 charger_assignments[site5,Fast150]
   + 80 charger_assignments[site5,Ultra350] >= 200
 service_balance: - 1.2 charger_assignments[site1,Level1]
   - 4.8 charger_assignments[site1,Level2]
   + 18 charger_assignments[site1,Fast50]
   + 33 charger_assignments[site1,Fast150]
   + 48 charger_assignments[site1,Ultra350]
   - 1.2 charger_assignments[site2,Level1]
   - 4.8 charger_assignments[site2,Level2]
   + 18 charger_assignments[site2,Fast50]
   + 33 charger_assignments[site2,Fast150]
   + 48 charger_assignments[site2,Ultra350]
   - 1.2 charger_assignments[site3,Level1]
   - 4.8 charger_assignments[site3,Level2]
   + 18 charger_assignments[site3,Fast50]
   + 33 charger_assignments[site3,Fast150]
   + 48 charger_assignments[site3,Ultra350]
   - 1.2 charger_assignments[site4,Level1]
   - 4.8 charger_assignments[site4,Level2]
   + 18 charger_assignments[site4,Fast50]
   + 33 charger_assignments[site4,Fast150]
   + 48 charger_assignments[site4,Ultra350]
   - 1.2 charger_assignments[site5,Level1]
   - 4.8 charger_assignments[site5,Level2]
   + 18 charger_assignments[site5,Fast50]
   + 33 charger_assignments[site5,Fast150]
   + 48 charger_assignments[site5,Ultra350] <= 0
Bounds
Generals
 charger_assignments[site1,Level1] charger_assignments[site1,Level2]
 charger_assignments[site1,Fast50] charger_assignments[site1,Fast150]
 charger_assignments[site1,Ultra350] charger_assignments[site2,Level1]
 charger_assignments[site2,Level2] charger_assignments[site2,Fast50]
 charger_assignments[site2,Fast150] charger_assignments[site2,Ultra350]
 charger_assignments[site3,Level1] charger_assignments[site3,Level2]
 charger_assignments[site3,Fast50] charger_assignments[site3,Fast150]
 charger_assignments[site3,Ultra350] charger_assignments[site4,Level1]
 charger_assignments[site4,Level2] charger_assignments[site4,Fast50]
 charger_assignments[site4,Fast150] charger_assignments[site4,Ultra350]
 charger_assignments[site5,Level1] charger_assignments[site5,Level2]
 charger_assignments[site5,Fast50] charger_assignments[site5,Fast150]
 charger_assignments[site5,Ultra350]
End
